#laser heat only one sphere

units		metal

dimension	3
boundary	p p s

atom_style	atomic


lattice	fcc 4.0479
region		setup block -25 75 -25 75 -25 75 units box
region		bed block 0 50 0 50 0 5 units box
region		bedtop block 0 50 0 50 2 5 units box
create_box	1 setup
create_atoms	1 region bed
mass            1 26.981
group		bed region bed
group 		bedtop region bedtop

minimize	1e-5 1e-5 5000 5000

lattice	fcc 4.0479
read_data 	create_ball/ball.data add append shift 10 10 12 group hotball9
read_data 	create_ball/ball.data add append shift 25 25 12 group hotball3
read_data 	create_ball/ball.data add append shift 40 40 12 group hotball8
read_data 	create_ball/ball.data add append  shift 10 25 12 group hotball2
read_data 	create_ball/ball.data add append shift 10 40 12 group hotball7
read_data 	create_ball/ball.data add append  shift 25 10 12 group hotball6
read_data 	create_ball/ball.data add append  shift 25 40 12 group hotball5
read_data 	create_ball/ball.data add append  shift 40 10 12 group hotball4
read_data 	create_ball/ball.data add append  shift 40 25 12 group hotball1 ##will apply laser on this ball

neighbor 	0.1 bin
neigh_modify   delay 10 check no

pair_style	eam/alloy
pair_coeff	* * Al99.eam.alloy Al 


delete_atoms	overlap 0.3 bed ball1

velocity 	all create 300.0 3213112 mom no rot no dist gaussian

thermo_style 	custom step temp etotal
thermo         100
compute	1 all ke/atom

dump 		1 all custom 100 tmp.dump id type x y z c_1

fix		1 bedtop nvt temp 300 300 0.1
timestep 	0.01
run 		10000

write_data	bednballs.data 


fix		8 hotball1 nve
fix		4 hotball1 heat 1 5
timestep 	0.001
run 		50000


unfix		4
run		50000	
